Exemplo TFM/model.mps
NAME amplgurobi
ROWS
 N  OBJ
 G  R0      
 G  R1      
 G  R2      
 G  R3      
 G  R4      
 G  R5      
 G  R6      
 G  R7      
 G  R8      
 G  R9      
 G  R10     
 G  R11     
 G  R12     
 G  R13     
 G  R14     
 G  R15     
 G  R16     
 G  R17     
 G  R18     
 G  R19     
 G  R20     
 G  R21     
 G  R22     
COLUMNS
    C0        R1        3
    C0        R2        6
    C0        R3        6
    C0        R4        6
    C0        R17       -12
    C0        R18       -6
    C0        R19       -6
    C1        OBJ       1
    C1        R0        -1
    C1        R1        -1
    C1        R5        6
    C1        R6        6
    C1        R7        6
    C1        R18       -6
    C1        R20       -12
    C1        R21       -6
    C2        OBJ       1
    C2        R8        6
    C2        R9        6
    C2        R10       6
    C2        R19       -6
    C2        R21       -6
    C2        R22       -12
    C3        R2        -1
    C3        R11       1
    C3        R17       1
    C4        R3        -1
    C4        R5        -1
    C4        R12       1
    C4        R18       1
    C5        OBJ       -1
    C5        R0        -4
    C5        R4        -1
    C5        R8        -1
    C5        R13       1
    C5        R19       1
    C6        R6        -1
    C6        R14       1
    C6        R20       1
    C7        OBJ       1
    C7        R7        -1
    C7        R9        -1
    C7        R15       1
    C7        R21       1
    C8        R10       -1
    C8        R16       1
    C8        R22       1
RHS
    RHS1      R0        -12
    RHS1      R1        -1
    RHS1      R17       -36
    RHS1      R18       -36
    RHS1      R19       -36
    RHS1      R20       -36
    RHS1      R21       -36
    RHS1      R22       -36
BOUNDS
 UP BND1      C0        6
 UP BND1      C1        6
 UP BND1      C2        6
ENDATA
